
%FILE DATA:	Soccer Computational Problem for MiniZinc Models	%
%AUTHOR:	Jack Wall	%
%CONTACT:  	116397063@umail.ucc.ie			%
%LAST UPDATE:	02/19/2020, 12:16:33						%
%DESCRIPTION: 	50 games played with 40 games left				%


n=10; %number of teams

%Games to play
games=[|4,1|1,4|6,7|7,9|9,10|3,8|10,4|6,3|2,8|2,9|7,8|8,4|1,5|3,1|9,5|8,5|5,4|1,10|8,10|9,8|9,2|6,2|9,7|5,10|6,4|5,9|6,5|9,4|1,7|7,2|2,4|9,6|2,6|4,2|3,2|4,10|10,7|4,3|9,3|3,9|];

%Initial points
iPoints=[17,6,15,11,19,15,18,18,4,15];

%POSITION CONSTRAINTS
% [|teamID, operator, position|...]
% operators index:
%  1 for =  operator
%  2 for >  operator
%  3 for >= operator
%  4 for <  operator
%  5 for <= operator
positionConstraints=[|3,1,1|5,2,1|7,2,2|];